\* Source Pyomo model name=unknown *\

min 
obj:
+0.2777777777777778 X(0_0)
+0.2777777777777778 X(1_0)
+0.2777777777777778 X(2_0)
+0.2777777777777778 X(3_0)
+0.2777777777777778 X(4_0)
+0.2777777777777778 X(5_0)
+0.2777777777777778 X(6_0)
+0.2777777777777778 X(7_0)
+0.2777777777777778 X(8_0)
+0.2777777777777778 X(9_0)
+0.2777777777777778 X(10_0)
+0.2777777777777778 X(11_0)
+0.2777777777777778 X(12_0)
+0.2777777777777778 X(13_0)
+0.2777777777777778 X(14_0)
+0.2777777777777778 X(15_0)
+0.2777777777777778 X(16_0)
+0.2777777777777778 X(17_0)
+0.2777777777777778 X(18_0)
+0.2777777777777778 X(19_0)
+0.2777777777777778 X(20_0)
+0.2777777777777778 X(21_0)
+0.2777777777777778 X(22_0)
+0.2777777777777778 X(23_0)
+0.2777777777777778 X(24_0)
+0.2777777777777778 X(25_0)
+0.2777777777777778 X(26_0)
+0.2777777777777778 X(27_0)
+0.2777777777777778 X(28_0)
+0.2777777777777778 X(29_0)
+0.2777777777777778 X(30_0)
+0.2777777777777778 X(31_0)
+0.2777777777777778 X(32_0)
+0.2777777777777778 X(33_0)
+0.2777777777777778 X(34_0)
+0.2777777777777778 X(35_0)
+1 area_dev_max
+1 slack(1)
+1 slack(2)
+ [
+0.13441955193482688 X(0_1) * X(1_2)
+0.13441955193482688 X(0_1) * X(2_2)
+0.001493550577053632 X(0_1) * X(3_2)
+0.26272912423625255 X(0_1) * X(12_2)
+0.26883910386965376 X(0_1) * X(13_2)
+0.13441955193482688 X(0_2) * X(1_1)
+0.13441955193482688 X(0_2) * X(2_1)
+0.001493550577053632 X(0_2) * X(3_1)
+0.26272912423625255 X(0_2) * X(12_1)
+0.26883910386965376 X(0_2) * X(13_1)
+0.13441955193482688 X(1_1) * X(2_2)
+0.13441955193482688 X(1_1) * X(11_2)
+0.26883910386965376 X(1_1) * X(14_2)
+0.26883910386965376 X(1_1) * X(15_2)
+0.13441955193482688 X(1_2) * X(2_1)
+0.13441955193482688 X(1_2) * X(11_1)
+0.26883910386965376 X(1_2) * X(14_1)
+0.26883910386965376 X(1_2) * X(15_1)
+0.13441955193482688 X(2_1) * X(10_2)
+0.26883910386965376 X(2_1) * X(16_2)
+0.26883910386965376 X(2_1) * X(17_2)
+0.13441955193482688 X(2_2) * X(10_1)
+0.26883910386965376 X(2_2) * X(16_1)
+0.26883910386965376 X(2_2) * X(17_1)
+0.13441955193482688 X(3_1) * X(4_2)
+0.13441955193482688 X(3_1) * X(5_2)
+0.26883910386965376 X(3_1) * X(18_2)
+0.26883910386965376 X(3_1) * X(19_2)
+0.13441955193482688 X(3_2) * X(4_1)
+0.13441955193482688 X(3_2) * X(5_1)
+0.26883910386965376 X(3_2) * X(18_1)
+0.26883910386965376 X(3_2) * X(19_1)
+0.13441955193482688 X(4_1) * X(5_2)
+0.13441955193482688 X(4_1) * X(8_2)
+0.26883910386965376 X(4_1) * X(20_2)
+0.26883910386965376 X(4_1) * X(21_2)
+0.13441955193482688 X(4_2) * X(5_1)
+0.13441955193482688 X(4_2) * X(8_1)
+0.26883910386965376 X(4_2) * X(20_1)
+0.26883910386965376 X(4_2) * X(21_1)
+0.13441955193482688 X(5_1) * X(7_2)
+0.26883910386965376 X(5_1) * X(22_2)
+0.26883910386965376 X(5_1) * X(23_2)
+0.13441955193482688 X(5_2) * X(7_1)
+0.26883910386965376 X(5_2) * X(22_1)
+0.26883910386965376 X(5_2) * X(23_1)
+0.26883910386965376 X(6_1) * X(7_2)
+0.13441955193482688 X(6_1) * X(8_2)
+0.001493550577053632 X(6_1) * X(9_2)
+0.26883910386965376 X(6_1) * X(24_2)
+0.26883910386965376 X(6_1) * X(25_2)
+0.26883910386965376 X(6_2) * X(7_1)
+0.13441955193482688 X(6_2) * X(8_1)
+0.001493550577053632 X(6_2) * X(9_1)
+0.26883910386965376 X(6_2) * X(24_1)
+0.26883910386965376 X(6_2) * X(25_1)
+0.13441955193482688 X(7_1) * X(8_2)
+0.26883910386965376 X(7_1) * X(26_2)
+0.26883910386965376 X(7_1) * X(27_2)
+0.13441955193482688 X(7_2) * X(8_1)
+0.26883910386965376 X(7_2) * X(26_1)
+0.26883910386965376 X(7_2) * X(27_1)
+0.26883910386965376 X(8_1) * X(28_2)
+0.26883910386965376 X(8_1) * X(29_2)
+0.26883910386965376 X(8_2) * X(28_1)
+0.26883910386965376 X(8_2) * X(29_1)
+0.13441955193482688 X(9_1) * X(10_2)
+0.13441955193482688 X(9_1) * X(11_2)
+0.26883910386965376 X(9_1) * X(30_2)
+0.26883910386965376 X(9_1) * X(31_2)
+0.13441955193482688 X(9_2) * X(10_1)
+0.13441955193482688 X(9_2) * X(11_1)
+0.26883910386965376 X(9_2) * X(30_1)
+0.26883910386965376 X(9_2) * X(31_1)
+0.13441955193482688 X(10_1) * X(11_2)
+0.26883910386965376 X(10_1) * X(32_2)
+0.26883910386965376 X(10_1) * X(33_2)
+0.13441955193482688 X(10_2) * X(11_1)
+0.26883910386965376 X(10_2) * X(32_1)
+0.26883910386965376 X(10_2) * X(33_1)
+0.26883910386965376 X(11_1) * X(34_2)
+0.26883910386965376 X(11_1) * X(35_2)
+0.26883910386965376 X(11_2) * X(34_1)
+0.26883910386965376 X(11_2) * X(35_1)
] / 2

s.t.

c_e_one_hot(0)_:
+1 X(0_0)
+1 X(0_1)
+1 X(0_2)
= 1

c_e_one_hot(1)_:
+1 X(1_0)
+1 X(1_1)
+1 X(1_2)
= 1

c_e_one_hot(2)_:
+1 X(2_0)
+1 X(2_1)
+1 X(2_2)
= 1

c_e_one_hot(3)_:
+1 X(3_0)
+1 X(3_1)
+1 X(3_2)
= 1

c_e_one_hot(4)_:
+1 X(4_0)
+1 X(4_1)
+1 X(4_2)
= 1

c_e_one_hot(5)_:
+1 X(5_0)
+1 X(5_1)
+1 X(5_2)
= 1

c_e_one_hot(6)_:
+1 X(6_0)
+1 X(6_1)
+1 X(6_2)
= 1

c_e_one_hot(7)_:
+1 X(7_0)
+1 X(7_1)
+1 X(7_2)
= 1

c_e_one_hot(8)_:
+1 X(8_0)
+1 X(8_1)
+1 X(8_2)
= 1

c_e_one_hot(9)_:
+1 X(9_0)
+1 X(9_1)
+1 X(9_2)
= 1

c_e_one_hot(10)_:
+1 X(10_0)
+1 X(10_1)
+1 X(10_2)
= 1

c_e_one_hot(11)_:
+1 X(11_0)
+1 X(11_1)
+1 X(11_2)
= 1

c_e_one_hot(12)_:
+1 X(12_0)
+1 X(12_1)
+1 X(12_2)
= 1

c_e_one_hot(13)_:
+1 X(13_0)
+1 X(13_1)
+1 X(13_2)
= 1

c_e_one_hot(14)_:
+1 X(14_0)
+1 X(14_1)
+1 X(14_2)
= 1

c_e_one_hot(15)_:
+1 X(15_0)
+1 X(15_1)
+1 X(15_2)
= 1

c_e_one_hot(16)_:
+1 X(16_0)
+1 X(16_1)
+1 X(16_2)
= 1

c_e_one_hot(17)_:
+1 X(17_0)
+1 X(17_1)
+1 X(17_2)
= 1

c_e_one_hot(18)_:
+1 X(18_0)
+1 X(18_1)
+1 X(18_2)
= 1

c_e_one_hot(19)_:
+1 X(19_0)
+1 X(19_1)
+1 X(19_2)
= 1

c_e_one_hot(20)_:
+1 X(20_0)
+1 X(20_1)
+1 X(20_2)
= 1

c_e_one_hot(21)_:
+1 X(21_0)
+1 X(21_1)
+1 X(21_2)
= 1

c_e_one_hot(22)_:
+1 X(22_0)
+1 X(22_1)
+1 X(22_2)
= 1

c_e_one_hot(23)_:
+1 X(23_0)
+1 X(23_1)
+1 X(23_2)
= 1

c_e_one_hot(24)_:
+1 X(24_0)
+1 X(24_1)
+1 X(24_2)
= 1

c_e_one_hot(25)_:
+1 X(25_0)
+1 X(25_1)
+1 X(25_2)
= 1

c_e_one_hot(26)_:
+1 X(26_0)
+1 X(26_1)
+1 X(26_2)
= 1

c_e_one_hot(27)_:
+1 X(27_0)
+1 X(27_1)
+1 X(27_2)
= 1

c_e_one_hot(28)_:
+1 X(28_0)
+1 X(28_1)
+1 X(28_2)
= 1

c_e_one_hot(29)_:
+1 X(29_0)
+1 X(29_1)
+1 X(29_2)
= 1

c_e_one_hot(30)_:
+1 X(30_0)
+1 X(30_1)
+1 X(30_2)
= 1

c_e_one_hot(31)_:
+1 X(31_0)
+1 X(31_1)
+1 X(31_2)
= 1

c_e_one_hot(32)_:
+1 X(32_0)
+1 X(32_1)
+1 X(32_2)
= 1

c_e_one_hot(33)_:
+1 X(33_0)
+1 X(33_1)
+1 X(33_2)
= 1

c_e_one_hot(34)_:
+1 X(34_0)
+1 X(34_1)
+1 X(34_2)
= 1

c_e_one_hot(35)_:
+1 X(35_0)
+1 X(35_1)
+1 X(35_2)
= 1

c_u_stitching_block(1)_:
+1 X(0_0)
+1 X(1_0)
<= 1

c_u_stitching_block(2)_:
+1 X(0_0)
+1 X(2_0)
<= 1

c_u_stitching_block(3)_:
+1 X(0_0)
+1 X(3_0)
<= 1

c_u_stitching_block(4)_:
+1 X(0_0)
+1 X(12_0)
<= 1

c_u_stitching_block(5)_:
+1 X(0_0)
+1 X(13_0)
<= 1

c_u_stitching_block(6)_:
+1 X(1_0)
+1 X(2_0)
<= 1

c_u_stitching_block(7)_:
+1 X(1_0)
+1 X(11_0)
<= 1

c_u_stitching_block(8)_:
+1 X(1_0)
+1 X(14_0)
<= 1

c_u_stitching_block(9)_:
+1 X(1_0)
+1 X(15_0)
<= 1

c_u_stitching_block(10)_:
+1 X(2_0)
+1 X(10_0)
<= 1

c_u_stitching_block(11)_:
+1 X(2_0)
+1 X(16_0)
<= 1

c_u_stitching_block(12)_:
+1 X(2_0)
+1 X(17_0)
<= 1

c_u_stitching_block(13)_:
+1 X(3_0)
+1 X(4_0)
<= 1

c_u_stitching_block(14)_:
+1 X(3_0)
+1 X(5_0)
<= 1

c_u_stitching_block(15)_:
+1 X(3_0)
+1 X(18_0)
<= 1

c_u_stitching_block(16)_:
+1 X(3_0)
+1 X(19_0)
<= 1

c_u_stitching_block(17)_:
+1 X(4_0)
+1 X(5_0)
<= 1

c_u_stitching_block(18)_:
+1 X(4_0)
+1 X(8_0)
<= 1

c_u_stitching_block(19)_:
+1 X(4_0)
+1 X(20_0)
<= 1

c_u_stitching_block(20)_:
+1 X(4_0)
+1 X(21_0)
<= 1

c_u_stitching_block(21)_:
+1 X(5_0)
+1 X(7_0)
<= 1

c_u_stitching_block(22)_:
+1 X(5_0)
+1 X(22_0)
<= 1

c_u_stitching_block(23)_:
+1 X(5_0)
+1 X(23_0)
<= 1

c_u_stitching_block(24)_:
+1 X(6_0)
+1 X(7_0)
<= 1

c_u_stitching_block(25)_:
+1 X(6_0)
+1 X(8_0)
<= 1

c_u_stitching_block(26)_:
+1 X(6_0)
+1 X(9_0)
<= 1

c_u_stitching_block(27)_:
+1 X(6_0)
+1 X(24_0)
<= 1

c_u_stitching_block(28)_:
+1 X(6_0)
+1 X(25_0)
<= 1

c_u_stitching_block(29)_:
+1 X(7_0)
+1 X(8_0)
<= 1

c_u_stitching_block(30)_:
+1 X(7_0)
+1 X(26_0)
<= 1

c_u_stitching_block(31)_:
+1 X(7_0)
+1 X(27_0)
<= 1

c_u_stitching_block(32)_:
+1 X(8_0)
+1 X(28_0)
<= 1

c_u_stitching_block(33)_:
+1 X(8_0)
+1 X(29_0)
<= 1

c_u_stitching_block(34)_:
+1 X(9_0)
+1 X(10_0)
<= 1

c_u_stitching_block(35)_:
+1 X(9_0)
+1 X(11_0)
<= 1

c_u_stitching_block(36)_:
+1 X(9_0)
+1 X(30_0)
<= 1

c_u_stitching_block(37)_:
+1 X(9_0)
+1 X(31_0)
<= 1

c_u_stitching_block(38)_:
+1 X(10_0)
+1 X(11_0)
<= 1

c_u_stitching_block(39)_:
+1 X(10_0)
+1 X(32_0)
<= 1

c_u_stitching_block(40)_:
+1 X(10_0)
+1 X(33_0)
<= 1

c_u_stitching_block(41)_:
+1 X(11_0)
+1 X(34_0)
<= 1

c_u_stitching_block(42)_:
+1 X(11_0)
+1 X(35_0)
<= 1

c_u_critical_net(1)_:
+1 X(0_1)
+1 X(1_2)
<= 1

c_u_critical_net(2)_:
+1 X(0_2)
+1 X(1_1)
<= 1

c_u_critical_net(3)_:
+1 X(0_1)
+1 X(2_2)
<= 1

c_u_critical_net(4)_:
+1 X(0_2)
+1 X(2_1)
<= 1

c_u_critical_net(5)_:
+1 X(0_1)
+1 X(12_2)
<= 1

c_u_critical_net(6)_:
+1 X(0_2)
+1 X(12_1)
<= 1

c_u_critical_net(7)_:
+1 X(0_1)
+1 X(13_2)
<= 1

c_u_critical_net(8)_:
+1 X(0_2)
+1 X(13_1)
<= 1

c_u_critical_net(9)_:
+1 X(1_1)
+1 X(2_2)
<= 1

c_u_critical_net(10)_:
+1 X(1_2)
+1 X(2_1)
<= 1

c_u_critical_net(11)_:
+1 X(1_1)
+1 X(11_2)
<= 1

c_u_critical_net(12)_:
+1 X(1_2)
+1 X(11_1)
<= 1

c_u_critical_net(13)_:
+1 X(1_1)
+1 X(14_2)
<= 1

c_u_critical_net(14)_:
+1 X(1_2)
+1 X(14_1)
<= 1

c_u_critical_net(15)_:
+1 X(1_1)
+1 X(15_2)
<= 1

c_u_critical_net(16)_:
+1 X(1_2)
+1 X(15_1)
<= 1

c_u_critical_net(17)_:
+1 X(2_1)
+1 X(10_2)
<= 1

c_u_critical_net(18)_:
+1 X(2_2)
+1 X(10_1)
<= 1

c_u_critical_net(19)_:
+1 X(2_1)
+1 X(16_2)
<= 1

c_u_critical_net(20)_:
+1 X(2_2)
+1 X(16_1)
<= 1

c_u_critical_net(21)_:
+1 X(2_1)
+1 X(17_2)
<= 1

c_u_critical_net(22)_:
+1 X(2_2)
+1 X(17_1)
<= 1

c_u_critical_net(23)_:
+1 X(3_1)
+1 X(4_2)
<= 1

c_u_critical_net(24)_:
+1 X(3_2)
+1 X(4_1)
<= 1

c_u_critical_net(25)_:
+1 X(3_1)
+1 X(5_2)
<= 1

c_u_critical_net(26)_:
+1 X(3_2)
+1 X(5_1)
<= 1

c_u_critical_net(27)_:
+1 X(3_1)
+1 X(18_2)
<= 1

c_u_critical_net(28)_:
+1 X(3_2)
+1 X(18_1)
<= 1

c_u_critical_net(29)_:
+1 X(3_1)
+1 X(19_2)
<= 1

c_u_critical_net(30)_:
+1 X(3_2)
+1 X(19_1)
<= 1

c_u_critical_net(31)_:
+1 X(4_1)
+1 X(5_2)
<= 1

c_u_critical_net(32)_:
+1 X(4_2)
+1 X(5_1)
<= 1

c_u_critical_net(33)_:
+1 X(4_1)
+1 X(8_2)
<= 1

c_u_critical_net(34)_:
+1 X(4_2)
+1 X(8_1)
<= 1

c_u_critical_net(35)_:
+1 X(4_1)
+1 X(20_2)
<= 1

c_u_critical_net(36)_:
+1 X(4_2)
+1 X(20_1)
<= 1

c_u_critical_net(37)_:
+1 X(4_1)
+1 X(21_2)
<= 1

c_u_critical_net(38)_:
+1 X(4_2)
+1 X(21_1)
<= 1

c_u_critical_net(39)_:
+1 X(5_1)
+1 X(7_2)
<= 1

c_u_critical_net(40)_:
+1 X(5_2)
+1 X(7_1)
<= 1

c_u_critical_net(41)_:
+1 X(5_1)
+1 X(22_2)
<= 1

c_u_critical_net(42)_:
+1 X(5_2)
+1 X(22_1)
<= 1

c_u_critical_net(43)_:
+1 X(5_1)
+1 X(23_2)
<= 1

c_u_critical_net(44)_:
+1 X(5_2)
+1 X(23_1)
<= 1

c_u_critical_net(45)_:
+1 X(6_1)
+1 X(7_2)
<= 1

c_u_critical_net(46)_:
+1 X(6_2)
+1 X(7_1)
<= 1

c_u_critical_net(47)_:
+1 X(6_1)
+1 X(8_2)
<= 1

c_u_critical_net(48)_:
+1 X(6_2)
+1 X(8_1)
<= 1

c_u_critical_net(49)_:
+1 X(6_1)
+1 X(24_2)
<= 1

c_u_critical_net(50)_:
+1 X(6_2)
+1 X(24_1)
<= 1

c_u_critical_net(51)_:
+1 X(6_1)
+1 X(25_2)
<= 1

c_u_critical_net(52)_:
+1 X(6_2)
+1 X(25_1)
<= 1

c_u_critical_net(53)_:
+1 X(7_1)
+1 X(8_2)
<= 1

c_u_critical_net(54)_:
+1 X(7_2)
+1 X(8_1)
<= 1

c_u_critical_net(55)_:
+1 X(7_1)
+1 X(26_2)
<= 1

c_u_critical_net(56)_:
+1 X(7_2)
+1 X(26_1)
<= 1

c_u_critical_net(57)_:
+1 X(7_1)
+1 X(27_2)
<= 1

c_u_critical_net(58)_:
+1 X(7_2)
+1 X(27_1)
<= 1

c_u_critical_net(59)_:
+1 X(8_1)
+1 X(28_2)
<= 1

c_u_critical_net(60)_:
+1 X(8_2)
+1 X(28_1)
<= 1

c_u_critical_net(61)_:
+1 X(8_1)
+1 X(29_2)
<= 1

c_u_critical_net(62)_:
+1 X(8_2)
+1 X(29_1)
<= 1

c_u_critical_net(63)_:
+1 X(9_1)
+1 X(10_2)
<= 1

c_u_critical_net(64)_:
+1 X(9_2)
+1 X(10_1)
<= 1

c_u_critical_net(65)_:
+1 X(9_1)
+1 X(11_2)
<= 1

c_u_critical_net(66)_:
+1 X(9_2)
+1 X(11_1)
<= 1

c_u_critical_net(67)_:
+1 X(9_1)
+1 X(30_2)
<= 1

c_u_critical_net(68)_:
+1 X(9_2)
+1 X(30_1)
<= 1

c_u_critical_net(69)_:
+1 X(9_1)
+1 X(31_2)
<= 1

c_u_critical_net(70)_:
+1 X(9_2)
+1 X(31_1)
<= 1

c_u_critical_net(71)_:
+1 X(10_1)
+1 X(11_2)
<= 1

c_u_critical_net(72)_:
+1 X(10_2)
+1 X(11_1)
<= 1

c_u_critical_net(73)_:
+1 X(10_1)
+1 X(32_2)
<= 1

c_u_critical_net(74)_:
+1 X(10_2)
+1 X(32_1)
<= 1

c_u_critical_net(75)_:
+1 X(10_1)
+1 X(33_2)
<= 1

c_u_critical_net(76)_:
+1 X(10_2)
+1 X(33_1)
<= 1

c_u_critical_net(77)_:
+1 X(11_1)
+1 X(34_2)
<= 1

c_u_critical_net(78)_:
+1 X(11_2)
+1 X(34_1)
<= 1

c_u_critical_net(79)_:
+1 X(11_1)
+1 X(35_2)
<= 1

c_u_critical_net(80)_:
+1 X(11_2)
+1 X(35_1)
<= 1

c_u_area_limit(1)_:
+8750000.0 X(0_1)
+8750000.0 X(1_1)
+8750000.0 X(2_1)
+8750000.0 X(3_1)
+8750000.0 X(4_1)
+8750000.0 X(5_1)
+8750000.0 X(6_1)
+8750000.0 X(7_1)
+8750000.0 X(8_1)
+8750000.0 X(9_1)
+8750000.0 X(10_1)
+8750000.0 X(11_1)
+6000000.0 X(12_1)
+6000000.0 X(13_1)
+6000000.0 X(14_1)
+6000000.0 X(15_1)
+6000000.0 X(16_1)
+6000000.0 X(17_1)
+6000000.0 X(18_1)
+6000000.0 X(19_1)
+6000000.0 X(20_1)
+6000000.0 X(21_1)
+6000000.0 X(22_1)
+6000000.0 X(23_1)
+6000000.0 X(24_1)
+6000000.0 X(25_1)
+6000000.0 X(26_1)
+6000000.0 X(27_1)
+6000000.0 X(28_1)
+6000000.0 X(29_1)
+6000000.0 X(30_1)
+6000000.0 X(31_1)
+6000000.0 X(32_1)
+6000000.0 X(33_1)
+6000000.0 X(34_1)
+6000000.0 X(35_1)
-1 slack(1)
<= 562125000.0

c_u_area_limit(2)_:
+8750000.0 X(0_2)
+8750000.0 X(1_2)
+8750000.0 X(2_2)
+8750000.0 X(3_2)
+8750000.0 X(4_2)
+8750000.0 X(5_2)
+8750000.0 X(6_2)
+8750000.0 X(7_2)
+8750000.0 X(8_2)
+8750000.0 X(9_2)
+8750000.0 X(10_2)
+8750000.0 X(11_2)
+6000000.0 X(12_2)
+6000000.0 X(13_2)
+6000000.0 X(14_2)
+6000000.0 X(15_2)
+6000000.0 X(16_2)
+6000000.0 X(17_2)
+6000000.0 X(18_2)
+6000000.0 X(19_2)
+6000000.0 X(20_2)
+6000000.0 X(21_2)
+6000000.0 X(22_2)
+6000000.0 X(23_2)
+6000000.0 X(24_2)
+6000000.0 X(25_2)
+6000000.0 X(26_2)
+6000000.0 X(27_2)
+6000000.0 X(28_2)
+6000000.0 X(29_2)
+6000000.0 X(30_2)
+6000000.0 X(31_2)
+6000000.0 X(32_2)
+6000000.0 X(33_2)
+6000000.0 X(34_2)
+6000000.0 X(35_2)
-1 slack(2)
<= 562125000.0

c_e_area_mean_def_:
-4375000.0 X(0_1)
-4375000.0 X(0_2)
-4375000.0 X(1_1)
-4375000.0 X(1_2)
-4375000.0 X(2_1)
-4375000.0 X(2_2)
-4375000.0 X(3_1)
-4375000.0 X(3_2)
-4375000.0 X(4_1)
-4375000.0 X(4_2)
-4375000.0 X(5_1)
-4375000.0 X(5_2)
-4375000.0 X(6_1)
-4375000.0 X(6_2)
-4375000.0 X(7_1)
-4375000.0 X(7_2)
-4375000.0 X(8_1)
-4375000.0 X(8_2)
-4375000.0 X(9_1)
-4375000.0 X(9_2)
-4375000.0 X(10_1)
-4375000.0 X(10_2)
-4375000.0 X(11_1)
-4375000.0 X(11_2)
-3000000.0 X(12_1)
-3000000.0 X(12_2)
-3000000.0 X(13_1)
-3000000.0 X(13_2)
-3000000.0 X(14_1)
-3000000.0 X(14_2)
-3000000.0 X(15_1)
-3000000.0 X(15_2)
-3000000.0 X(16_1)
-3000000.0 X(16_2)
-3000000.0 X(17_1)
-3000000.0 X(17_2)
-3000000.0 X(18_1)
-3000000.0 X(18_2)
-3000000.0 X(19_1)
-3000000.0 X(19_2)
-3000000.0 X(20_1)
-3000000.0 X(20_2)
-3000000.0 X(21_1)
-3000000.0 X(21_2)
-3000000.0 X(22_1)
-3000000.0 X(22_2)
-3000000.0 X(23_1)
-3000000.0 X(23_2)
-3000000.0 X(24_1)
-3000000.0 X(24_2)
-3000000.0 X(25_1)
-3000000.0 X(25_2)
-3000000.0 X(26_1)
-3000000.0 X(26_2)
-3000000.0 X(27_1)
-3000000.0 X(27_2)
-3000000.0 X(28_1)
-3000000.0 X(28_2)
-3000000.0 X(29_1)
-3000000.0 X(29_2)
-3000000.0 X(30_1)
-3000000.0 X(30_2)
-3000000.0 X(31_1)
-3000000.0 X(31_2)
-3000000.0 X(32_1)
-3000000.0 X(32_2)
-3000000.0 X(33_1)
-3000000.0 X(33_2)
-3000000.0 X(34_1)
-3000000.0 X(34_2)
-3000000.0 X(35_1)
-3000000.0 X(35_2)
+1 area_mean
= 0

c_u_area_dev_con(1)_:
+0.02334889926617745 X(0_1)
+0.02334889926617745 X(1_1)
+0.02334889926617745 X(2_1)
+0.02334889926617745 X(3_1)
+0.02334889926617745 X(4_1)
+0.02334889926617745 X(5_1)
+0.02334889926617745 X(6_1)
+0.02334889926617745 X(7_1)
+0.02334889926617745 X(8_1)
+0.02334889926617745 X(9_1)
+0.02334889926617745 X(10_1)
+0.02334889926617745 X(11_1)
+0.016010673782521682 X(12_1)
+0.016010673782521682 X(13_1)
+0.016010673782521682 X(14_1)
+0.016010673782521682 X(15_1)
+0.016010673782521682 X(16_1)
+0.016010673782521682 X(17_1)
+0.016010673782521682 X(18_1)
+0.016010673782521682 X(19_1)
+0.016010673782521682 X(20_1)
+0.016010673782521682 X(21_1)
+0.016010673782521682 X(22_1)
+0.016010673782521682 X(23_1)
+0.016010673782521682 X(24_1)
+0.016010673782521682 X(25_1)
+0.016010673782521682 X(26_1)
+0.016010673782521682 X(27_1)
+0.016010673782521682 X(28_1)
+0.016010673782521682 X(29_1)
+0.016010673782521682 X(30_1)
+0.016010673782521682 X(31_1)
+0.016010673782521682 X(32_1)
+0.016010673782521682 X(33_1)
+0.016010673782521682 X(34_1)
+0.016010673782521682 X(35_1)
-1 area_dev_max
-2.66844563042028e-09 area_mean
<= 0

c_u_area_dev_con(2)_:
-0.02334889926617745 X(0_1)
-0.02334889926617745 X(1_1)
-0.02334889926617745 X(2_1)
-0.02334889926617745 X(3_1)
-0.02334889926617745 X(4_1)
-0.02334889926617745 X(5_1)
-0.02334889926617745 X(6_1)
-0.02334889926617745 X(7_1)
-0.02334889926617745 X(8_1)
-0.02334889926617745 X(9_1)
-0.02334889926617745 X(10_1)
-0.02334889926617745 X(11_1)
-0.016010673782521682 X(12_1)
-0.016010673782521682 X(13_1)
-0.016010673782521682 X(14_1)
-0.016010673782521682 X(15_1)
-0.016010673782521682 X(16_1)
-0.016010673782521682 X(17_1)
-0.016010673782521682 X(18_1)
-0.016010673782521682 X(19_1)
-0.016010673782521682 X(20_1)
-0.016010673782521682 X(21_1)
-0.016010673782521682 X(22_1)
-0.016010673782521682 X(23_1)
-0.016010673782521682 X(24_1)
-0.016010673782521682 X(25_1)
-0.016010673782521682 X(26_1)
-0.016010673782521682 X(27_1)
-0.016010673782521682 X(28_1)
-0.016010673782521682 X(29_1)
-0.016010673782521682 X(30_1)
-0.016010673782521682 X(31_1)
-0.016010673782521682 X(32_1)
-0.016010673782521682 X(33_1)
-0.016010673782521682 X(34_1)
-0.016010673782521682 X(35_1)
-1 area_dev_max
+2.66844563042028e-09 area_mean
<= 0

c_u_area_dev_con(3)_:
+0.02334889926617745 X(0_2)
+0.02334889926617745 X(1_2)
+0.02334889926617745 X(2_2)
+0.02334889926617745 X(3_2)
+0.02334889926617745 X(4_2)
+0.02334889926617745 X(5_2)
+0.02334889926617745 X(6_2)
+0.02334889926617745 X(7_2)
+0.02334889926617745 X(8_2)
+0.02334889926617745 X(9_2)
+0.02334889926617745 X(10_2)
+0.02334889926617745 X(11_2)
+0.016010673782521682 X(12_2)
+0.016010673782521682 X(13_2)
+0.016010673782521682 X(14_2)
+0.016010673782521682 X(15_2)
+0.016010673782521682 X(16_2)
+0.016010673782521682 X(17_2)
+0.016010673782521682 X(18_2)
+0.016010673782521682 X(19_2)
+0.016010673782521682 X(20_2)
+0.016010673782521682 X(21_2)
+0.016010673782521682 X(22_2)
+0.016010673782521682 X(23_2)
+0.016010673782521682 X(24_2)
+0.016010673782521682 X(25_2)
+0.016010673782521682 X(26_2)
+0.016010673782521682 X(27_2)
+0.016010673782521682 X(28_2)
+0.016010673782521682 X(29_2)
+0.016010673782521682 X(30_2)
+0.016010673782521682 X(31_2)
+0.016010673782521682 X(32_2)
+0.016010673782521682 X(33_2)
+0.016010673782521682 X(34_2)
+0.016010673782521682 X(35_2)
-1 area_dev_max
-2.66844563042028e-09 area_mean
<= 0

c_u_area_dev_con(4)_:
-0.02334889926617745 X(0_2)
-0.02334889926617745 X(1_2)
-0.02334889926617745 X(2_2)
-0.02334889926617745 X(3_2)
-0.02334889926617745 X(4_2)
-0.02334889926617745 X(5_2)
-0.02334889926617745 X(6_2)
-0.02334889926617745 X(7_2)
-0.02334889926617745 X(8_2)
-0.02334889926617745 X(9_2)
-0.02334889926617745 X(10_2)
-0.02334889926617745 X(11_2)
-0.016010673782521682 X(12_2)
-0.016010673782521682 X(13_2)
-0.016010673782521682 X(14_2)
-0.016010673782521682 X(15_2)
-0.016010673782521682 X(16_2)
-0.016010673782521682 X(17_2)
-0.016010673782521682 X(18_2)
-0.016010673782521682 X(19_2)
-0.016010673782521682 X(20_2)
-0.016010673782521682 X(21_2)
-0.016010673782521682 X(22_2)
-0.016010673782521682 X(23_2)
-0.016010673782521682 X(24_2)
-0.016010673782521682 X(25_2)
-0.016010673782521682 X(26_2)
-0.016010673782521682 X(27_2)
-0.016010673782521682 X(28_2)
-0.016010673782521682 X(29_2)
-0.016010673782521682 X(30_2)
-0.016010673782521682 X(31_2)
-0.016010673782521682 X(32_2)
-0.016010673782521682 X(33_2)
-0.016010673782521682 X(34_2)
-0.016010673782521682 X(35_2)
-1 area_dev_max
+2.66844563042028e-09 area_mean
<= 0

bounds
   0 <= X(0_0) <= 1
   0 <= X(0_1) <= 1
   0 <= X(0_2) <= 1
   0 <= X(1_0) <= 1
   0 <= X(1_1) <= 1
   0 <= X(1_2) <= 1
   0 <= X(2_0) <= 1
   0 <= X(2_1) <= 1
   0 <= X(2_2) <= 1
   0 <= X(3_0) <= 1
   0 <= X(3_1) <= 1
   0 <= X(3_2) <= 1
   0 <= X(4_0) <= 1
   0 <= X(4_1) <= 1
   0 <= X(4_2) <= 1
   0 <= X(5_0) <= 1
   0 <= X(5_1) <= 1
   0 <= X(5_2) <= 1
   0 <= X(6_0) <= 1
   0 <= X(6_1) <= 1
   0 <= X(6_2) <= 1
   0 <= X(7_0) <= 1
   0 <= X(7_1) <= 1
   0 <= X(7_2) <= 1
   0 <= X(8_0) <= 1
   0 <= X(8_1) <= 1
   0 <= X(8_2) <= 1
   0 <= X(9_0) <= 1
   0 <= X(9_1) <= 1
   0 <= X(9_2) <= 1
   0 <= X(10_0) <= 1
   0 <= X(10_1) <= 1
   0 <= X(10_2) <= 1
   0 <= X(11_0) <= 1
   0 <= X(11_1) <= 1
   0 <= X(11_2) <= 1
   0 <= X(12_0) <= 1
   0 <= X(12_1) <= 1
   0 <= X(12_2) <= 1
   0 <= X(13_0) <= 1
   0 <= X(13_1) <= 1
   0 <= X(13_2) <= 1
   0 <= X(14_0) <= 1
   0 <= X(14_1) <= 1
   0 <= X(14_2) <= 1
   0 <= X(15_0) <= 1
   0 <= X(15_1) <= 1
   0 <= X(15_2) <= 1
   0 <= X(16_0) <= 1
   0 <= X(16_1) <= 1
   0 <= X(16_2) <= 1
   0 <= X(17_0) <= 1
   0 <= X(17_1) <= 1
   0 <= X(17_2) <= 1
   0 <= X(18_0) <= 1
   0 <= X(18_1) <= 1
   0 <= X(18_2) <= 1
   0 <= X(19_0) <= 1
   0 <= X(19_1) <= 1
   0 <= X(19_2) <= 1
   0 <= X(20_0) <= 1
   0 <= X(20_1) <= 1
   0 <= X(20_2) <= 1
   0 <= X(21_0) <= 1
   0 <= X(21_1) <= 1
   0 <= X(21_2) <= 1
   0 <= X(22_0) <= 1
   0 <= X(22_1) <= 1
   0 <= X(22_2) <= 1
   0 <= X(23_0) <= 1
   0 <= X(23_1) <= 1
   0 <= X(23_2) <= 1
   0 <= X(24_0) <= 1
   0 <= X(24_1) <= 1
   0 <= X(24_2) <= 1
   0 <= X(25_0) <= 1
   0 <= X(25_1) <= 1
   0 <= X(25_2) <= 1
   0 <= X(26_0) <= 1
   0 <= X(26_1) <= 1
   0 <= X(26_2) <= 1
   0 <= X(27_0) <= 1
   0 <= X(27_1) <= 1
   0 <= X(27_2) <= 1
   0 <= X(28_0) <= 1
   0 <= X(28_1) <= 1
   0 <= X(28_2) <= 1
   0 <= X(29_0) <= 1
   0 <= X(29_1) <= 1
   0 <= X(29_2) <= 1
   0 <= X(30_0) <= 1
   0 <= X(30_1) <= 1
   0 <= X(30_2) <= 1
   0 <= X(31_0) <= 1
   0 <= X(31_1) <= 1
   0 <= X(31_2) <= 1
   0 <= X(32_0) <= 1
   0 <= X(32_1) <= 1
   0 <= X(32_2) <= 1
   0 <= X(33_0) <= 1
   0 <= X(33_1) <= 1
   0 <= X(33_2) <= 1
   0 <= X(34_0) <= 1
   0 <= X(34_1) <= 1
   0 <= X(34_2) <= 1
   0 <= X(35_0) <= 1
   0 <= X(35_1) <= 1
   0 <= X(35_2) <= 1
   0 <= area_dev_max <= +inf
   0 <= slack(1) <= +inf
   0 <= slack(2) <= +inf
   0 <= area_mean <= +inf
binary
  X(0_0)
  X(0_1)
  X(0_2)
  X(1_0)
  X(1_1)
  X(1_2)
  X(2_0)
  X(2_1)
  X(2_2)
  X(3_0)
  X(3_1)
  X(3_2)
  X(4_0)
  X(4_1)
  X(4_2)
  X(5_0)
  X(5_1)
  X(5_2)
  X(6_0)
  X(6_1)
  X(6_2)
  X(7_0)
  X(7_1)
  X(7_2)
  X(8_0)
  X(8_1)
  X(8_2)
  X(9_0)
  X(9_1)
  X(9_2)
  X(10_0)
  X(10_1)
  X(10_2)
  X(11_0)
  X(11_1)
  X(11_2)
  X(12_0)
  X(12_1)
  X(12_2)
  X(13_0)
  X(13_1)
  X(13_2)
  X(14_0)
  X(14_1)
  X(14_2)
  X(15_0)
  X(15_1)
  X(15_2)
  X(16_0)
  X(16_1)
  X(16_2)
  X(17_0)
  X(17_1)
  X(17_2)
  X(18_0)
  X(18_1)
  X(18_2)
  X(19_0)
  X(19_1)
  X(19_2)
  X(20_0)
  X(20_1)
  X(20_2)
  X(21_0)
  X(21_1)
  X(21_2)
  X(22_0)
  X(22_1)
  X(22_2)
  X(23_0)
  X(23_1)
  X(23_2)
  X(24_0)
  X(24_1)
  X(24_2)
  X(25_0)
  X(25_1)
  X(25_2)
  X(26_0)
  X(26_1)
  X(26_2)
  X(27_0)
  X(27_1)
  X(27_2)
  X(28_0)
  X(28_1)
  X(28_2)
  X(29_0)
  X(29_1)
  X(29_2)
  X(30_0)
  X(30_1)
  X(30_2)
  X(31_0)
  X(31_1)
  X(31_2)
  X(32_0)
  X(32_1)
  X(32_2)
  X(33_0)
  X(33_1)
  X(33_2)
  X(34_0)
  X(34_1)
  X(34_2)
  X(35_0)
  X(35_1)
  X(35_2)
end
