\* Source Pyomo model name=unknown *\

min 
obj:
+1 area_dev_max
+5.0 X(0_0)
+5.0 X(1_0)
+5.0 X(2_0)
+5.0 X(3_0)
+5.0 X(4_0)
+5.0 X(5_0)
+5.0 X(6_0)
+5.0 X(7_0)
+5.0 X(8_0)
+5.0 X(9_0)
+5.0 X(10_0)
+5.0 X(11_0)
+5.0 X(12_0)
+5.0 X(13_0)
+5.0 X(14_0)
+5.0 X(15_0)
+5.0 X(16_0)
+5.0 X(17_0)
+5.0 X(18_0)
+5.0 X(19_0)
+1 slack(1)

s.t.

c_e_one_hot(0)_:
+1 X(0_0)
+1 X(0_1)
= 1

c_e_one_hot(1)_:
+1 X(1_0)
+1 X(1_1)
= 1

c_e_one_hot(2)_:
+1 X(2_0)
+1 X(2_1)
= 1

c_e_one_hot(3)_:
+1 X(3_0)
+1 X(3_1)
= 1

c_e_one_hot(4)_:
+1 X(4_0)
+1 X(4_1)
= 1

c_e_one_hot(5)_:
+1 X(5_0)
+1 X(5_1)
= 1

c_e_one_hot(6)_:
+1 X(6_0)
+1 X(6_1)
= 1

c_e_one_hot(7)_:
+1 X(7_0)
+1 X(7_1)
= 1

c_e_one_hot(8)_:
+1 X(8_0)
+1 X(8_1)
= 1

c_e_one_hot(9)_:
+1 X(9_0)
+1 X(9_1)
= 1

c_e_one_hot(10)_:
+1 X(10_0)
+1 X(10_1)
= 1

c_e_one_hot(11)_:
+1 X(11_0)
+1 X(11_1)
= 1

c_e_one_hot(12)_:
+1 X(12_0)
+1 X(12_1)
= 1

c_e_one_hot(13)_:
+1 X(13_0)
+1 X(13_1)
= 1

c_e_one_hot(14)_:
+1 X(14_0)
+1 X(14_1)
= 1

c_e_one_hot(15)_:
+1 X(15_0)
+1 X(15_1)
= 1

c_e_one_hot(16)_:
+1 X(16_0)
+1 X(16_1)
= 1

c_e_one_hot(17)_:
+1 X(17_0)
+1 X(17_1)
= 1

c_e_one_hot(18)_:
+1 X(18_0)
+1 X(18_1)
= 1

c_e_one_hot(19)_:
+1 X(19_0)
+1 X(19_1)
= 1

c_u_stitching_block(1)_:
+1 X(0_0)
+1 X(1_0)
<= 1

c_u_stitching_block(2)_:
+1 X(0_0)
+1 X(7_0)
<= 1

c_u_stitching_block(3)_:
+1 X(0_0)
+1 X(8_0)
<= 1

c_u_stitching_block(4)_:
+1 X(1_0)
+1 X(2_0)
<= 1

c_u_stitching_block(5)_:
+1 X(1_0)
+1 X(16_0)
<= 1

c_u_stitching_block(6)_:
+1 X(2_0)
+1 X(3_0)
<= 1

c_u_stitching_block(7)_:
+1 X(2_0)
+1 X(9_0)
<= 1

c_u_stitching_block(8)_:
+1 X(3_0)
+1 X(4_0)
<= 1

c_u_stitching_block(9)_:
+1 X(3_0)
+1 X(17_0)
<= 1

c_u_stitching_block(10)_:
+1 X(4_0)
+1 X(5_0)
<= 1

c_u_stitching_block(11)_:
+1 X(4_0)
+1 X(10_0)
<= 1

c_u_stitching_block(12)_:
+1 X(5_0)
+1 X(6_0)
<= 1

c_u_stitching_block(13)_:
+1 X(5_0)
+1 X(18_0)
<= 1

c_u_stitching_block(14)_:
+1 X(6_0)
+1 X(7_0)
<= 1

c_u_stitching_block(15)_:
+1 X(6_0)
+1 X(11_0)
<= 1

c_u_stitching_block(16)_:
+1 X(7_0)
+1 X(19_0)
<= 1

c_u_stitching_block(17)_:
+1 X(8_0)
+1 X(12_0)
<= 1

c_u_stitching_block(18)_:
+1 X(9_0)
+1 X(13_0)
<= 1

c_u_stitching_block(19)_:
+1 X(10_0)
+1 X(14_0)
<= 1

c_u_stitching_block(20)_:
+1 X(11_0)
+1 X(15_0)
<= 1

c_u_area_limit(1)_:
+25000000.0 X(0_1)
+25000000.0 X(1_1)
+25000000.0 X(2_1)
+25000000.0 X(3_1)
+25000000.0 X(4_1)
+25000000.0 X(5_1)
+25000000.0 X(6_1)
+25000000.0 X(7_1)
+81000000.0 X(8_1)
+81000000.0 X(9_1)
+81000000.0 X(10_1)
+81000000.0 X(11_1)
+96000000.0 X(12_1)
+96000000.0 X(13_1)
+96000000.0 X(14_1)
+96000000.0 X(15_1)
+81000000.0 X(16_1)
+81000000.0 X(17_1)
+81000000.0 X(18_1)
+81000000.0 X(19_1)
-1 slack(1)
<= 5400000000.0

c_e_area_mean_def_:
-25000000.0 X(0_1)
-25000000.0 X(1_1)
-25000000.0 X(2_1)
-25000000.0 X(3_1)
-25000000.0 X(4_1)
-25000000.0 X(5_1)
-25000000.0 X(6_1)
-25000000.0 X(7_1)
-81000000.0 X(8_1)
-81000000.0 X(9_1)
-81000000.0 X(10_1)
-81000000.0 X(11_1)
-96000000.0 X(12_1)
-96000000.0 X(13_1)
-96000000.0 X(14_1)
-96000000.0 X(15_1)
-81000000.0 X(16_1)
-81000000.0 X(17_1)
-81000000.0 X(18_1)
-81000000.0 X(19_1)
+1 area_mean
= 0

c_u_area_dev_con(1)_:
-1 area_dev_max
+0.006944444444444444 X(0_1)
+0.006944444444444444 X(1_1)
+0.006944444444444444 X(2_1)
+0.006944444444444444 X(3_1)
+0.006944444444444444 X(4_1)
+0.006944444444444444 X(5_1)
+0.006944444444444444 X(6_1)
+0.006944444444444444 X(7_1)
+0.0225 X(8_1)
+0.0225 X(9_1)
+0.0225 X(10_1)
+0.0225 X(11_1)
+0.026666666666666665 X(12_1)
+0.026666666666666665 X(13_1)
+0.026666666666666665 X(14_1)
+0.026666666666666665 X(15_1)
+0.0225 X(16_1)
+0.0225 X(17_1)
+0.0225 X(18_1)
+0.0225 X(19_1)
-2.7777777777777777e-10 area_mean
<= 0

c_u_area_dev_con(2)_:
-1 area_dev_max
-0.006944444444444444 X(0_1)
-0.006944444444444444 X(1_1)
-0.006944444444444444 X(2_1)
-0.006944444444444444 X(3_1)
-0.006944444444444444 X(4_1)
-0.006944444444444444 X(5_1)
-0.006944444444444444 X(6_1)
-0.006944444444444444 X(7_1)
-0.0225 X(8_1)
-0.0225 X(9_1)
-0.0225 X(10_1)
-0.0225 X(11_1)
-0.026666666666666665 X(12_1)
-0.026666666666666665 X(13_1)
-0.026666666666666665 X(14_1)
-0.026666666666666665 X(15_1)
-0.0225 X(16_1)
-0.0225 X(17_1)
-0.0225 X(18_1)
-0.0225 X(19_1)
+2.7777777777777777e-10 area_mean
<= 0

bounds
   0 <= area_dev_max <= +inf
   0 <= X(0_0) <= 1
   0 <= X(0_1) <= 1
   0 <= X(1_0) <= 1
   0 <= X(1_1) <= 1
   0 <= X(2_0) <= 1
   0 <= X(2_1) <= 1
   0 <= X(3_0) <= 1
   0 <= X(3_1) <= 1
   0 <= X(4_0) <= 1
   0 <= X(4_1) <= 1
   0 <= X(5_0) <= 1
   0 <= X(5_1) <= 1
   0 <= X(6_0) <= 1
   0 <= X(6_1) <= 1
   0 <= X(7_0) <= 1
   0 <= X(7_1) <= 1
   0 <= X(8_0) <= 1
   0 <= X(8_1) <= 1
   0 <= X(9_0) <= 1
   0 <= X(9_1) <= 1
   0 <= X(10_0) <= 1
   0 <= X(10_1) <= 1
   0 <= X(11_0) <= 1
   0 <= X(11_1) <= 1
   0 <= X(12_0) <= 1
   0 <= X(12_1) <= 1
   0 <= X(13_0) <= 1
   0 <= X(13_1) <= 1
   0 <= X(14_0) <= 1
   0 <= X(14_1) <= 1
   0 <= X(15_0) <= 1
   0 <= X(15_1) <= 1
   0 <= X(16_0) <= 1
   0 <= X(16_1) <= 1
   0 <= X(17_0) <= 1
   0 <= X(17_1) <= 1
   0 <= X(18_0) <= 1
   0 <= X(18_1) <= 1
   0 <= X(19_0) <= 1
   0 <= X(19_1) <= 1
   0 <= slack(1) <= +inf
   0 <= area_mean <= +inf
binary
  X(0_0)
  X(0_1)
  X(1_0)
  X(1_1)
  X(2_0)
  X(2_1)
  X(3_0)
  X(3_1)
  X(4_0)
  X(4_1)
  X(5_0)
  X(5_1)
  X(6_0)
  X(6_1)
  X(7_0)
  X(7_1)
  X(8_0)
  X(8_1)
  X(9_0)
  X(9_1)
  X(10_0)
  X(10_1)
  X(11_0)
  X(11_1)
  X(12_0)
  X(12_1)
  X(13_0)
  X(13_1)
  X(14_0)
  X(14_1)
  X(15_0)
  X(15_1)
  X(16_0)
  X(16_1)
  X(17_0)
  X(17_1)
  X(18_0)
  X(18_1)
  X(19_0)
  X(19_1)
end
