\* Source Pyomo model name=unknown *\

min 
obj:
+50 area_dev_max
+1.25 X(0_0)
+1.25 X(1_0)
+1.25 X(2_0)
+1.25 X(3_0)
+1.25 X(4_0)
+1.25 X(5_0)
+1.25 X(6_0)
+1.25 X(7_0)
+1 slack(1)

s.t.

c_e_one_hot(0)_:
+1 X(0_0)
+1 X(0_1)
= 1

c_e_one_hot(1)_:
+1 X(1_0)
+1 X(1_1)
= 1

c_e_one_hot(2)_:
+1 X(2_0)
+1 X(2_1)
= 1

c_e_one_hot(3)_:
+1 X(3_0)
+1 X(3_1)
= 1

c_e_one_hot(4)_:
+1 X(4_0)
+1 X(4_1)
= 1

c_e_one_hot(5)_:
+1 X(5_0)
+1 X(5_1)
= 1

c_e_one_hot(6)_:
+1 X(6_0)
+1 X(6_1)
= 1

c_e_one_hot(7)_:
+1 X(7_0)
+1 X(7_1)
= 1

c_u_stitching_block(1)_:
+1 X(0_0)
+1 X(1_0)
<= 1

c_u_stitching_block(2)_:
+1 X(0_0)
+1 X(2_0)
<= 1

c_u_stitching_block(3)_:
+1 X(0_0)
+1 X(3_0)
<= 1

c_u_stitching_block(4)_:
+1 X(0_0)
+1 X(4_0)
<= 1

c_u_stitching_block(5)_:
+1 X(0_0)
+1 X(5_0)
<= 1

c_u_stitching_block(6)_:
+1 X(0_0)
+1 X(6_0)
<= 1

c_u_stitching_block(7)_:
+1 X(0_0)
+1 X(7_0)
<= 1

c_u_stitching_block(8)_:
+1 X(1_0)
+1 X(6_0)
<= 1

c_u_stitching_block(9)_:
+1 X(6_0)
+1 X(7_0)
<= 1

c_u_area_limit(1)_:
+240012000.0 X(0_1)
+128016000.0 X(1_1)
+64008000.0 X(2_1)
+64008000.0 X(3_1)
+64008000.0 X(4_1)
+64008000.0 X(5_1)
+72006000.0 X(6_1)
+72006000.0 X(7_1)
-1 slack(1)
<= 2400000000.0

c_e_area_mean_def_:
-240012000.0 X(0_1)
-128016000.0 X(1_1)
-64008000.0 X(2_1)
-64008000.0 X(3_1)
-64008000.0 X(4_1)
-64008000.0 X(5_1)
-72006000.0 X(6_1)
-72006000.0 X(7_1)
+1 area_mean
= 0

c_u_area_dev_con(1)_:
-1 area_dev_max
+0.15000750000000002 X(0_1)
+0.08001 X(1_1)
+0.040005 X(2_1)
+0.040005 X(3_1)
+0.040005 X(4_1)
+0.040005 X(5_1)
+0.04500375 X(6_1)
+0.04500375 X(7_1)
-6.25e-10 area_mean
<= 0

c_u_area_dev_con(2)_:
-1 area_dev_max
-0.15000750000000002 X(0_1)
-0.08001 X(1_1)
-0.040005 X(2_1)
-0.040005 X(3_1)
-0.040005 X(4_1)
-0.040005 X(5_1)
-0.04500375 X(6_1)
-0.04500375 X(7_1)
+6.25e-10 area_mean
<= 0

bounds
   0 <= area_dev_max <= +inf
   0 <= X(0_0) <= 1
   0 <= X(0_1) <= 1
   0 <= X(1_0) <= 1
   0 <= X(1_1) <= 1
   0 <= X(2_0) <= 1
   0 <= X(2_1) <= 1
   0 <= X(3_0) <= 1
   0 <= X(3_1) <= 1
   0 <= X(4_0) <= 1
   0 <= X(4_1) <= 1
   0 <= X(5_0) <= 1
   0 <= X(5_1) <= 1
   0 <= X(6_0) <= 1
   0 <= X(6_1) <= 1
   0 <= X(7_0) <= 1
   0 <= X(7_1) <= 1
   0 <= slack(1) <= +inf
   0 <= area_mean <= +inf
binary
  X(0_0)
  X(0_1)
  X(1_0)
  X(1_1)
  X(2_0)
  X(2_1)
  X(3_0)
  X(3_1)
  X(4_0)
  X(4_1)
  X(5_0)
  X(5_1)
  X(6_0)
  X(6_1)
  X(7_0)
  X(7_1)
end
